min: 11582 z_0 + 8221 z_1 + 11362 z_2 + 11961 z_3 + 9961 z_4 + 3692 z_5 + 9 x_0_0 + 49 x_0_1 + 24 x_0_2 + 23 x_0_3 + 49 x_0_4 + 31 x_0_5 + 23 x_1_0 + 42 x_1_1 + 49 x_1_2 + 37 x_1_3 + 7 x_1_4 + 7 x_1_5 + 5 x_2_0 + 36 x_2_1 + 2 x_2_2 + 31 x_2_3 + 14 x_2_4 + 2 x_2_5 + 5 x_3_0 + 15 x_3_1 + 23 x_3_2 + 39 x_3_3 + 40 x_3_4 + 17 x_3_5 + 23 x_4_0 + 3 x_4_1 + 38 x_4_2 + 50 x_4_3 + 38 x_4_4 + 18 x_4_5 + 6 x_5_0 + 25 x_5_1 + 17 x_5_2 + 43 x_5_3 + 25 x_5_4 + 50 x_5_5 + 27 x_6_0 + 10 x_6_1 + 5 x_6_2 + 2 x_6_3 + 29 x_6_4 + 20 x_6_5 + 17 x_7_0 + 33 x_7_1 + 27 x_7_2 + 5 x_7_3 + 1 x_7_4 + 46 x_7_5 + 8 x_8_0 + 46 x_8_1 + 45 x_8_2 + 50 x_8_3 + 46 x_8_4 + 12 x_8_5 + 3 x_9_0 + 15 x_9_1 + 16 x_9_2 + 34 x_9_3 + 47 x_9_4 + 9 x_9_5 + 34 y_0_0 + 14 y_0_1 + 14 y_0_2 + 36 y_0_3 + 34 y_0_4 + 11 y_0_5 + 8 y_0_6 + 18 y_0_7 + 45 y_0_8 + 10 y_1_0 + 26 y_1_1 + 30 y_1_2 + 5 y_1_3 + 46 y_1_4 + 22 y_1_5 + 48 y_1_6 + 16 y_1_7 + 33 y_1_8 + 42 y_2_0 + 7 y_2_1 + 28 y_2_2 + 9 y_2_3 + 30 y_2_4 + 41 y_2_5 + 4 y_2_6 + 40 y_2_7 + 11 y_2_8 + 35 y_3_0 + 7 y_3_1 + 41 y_3_2 + 25 y_3_3 + 38 y_3_4 + 36 y_3_5 + 10 y_3_6 + 26 y_3_7 + 1 y_3_8 + 10 y_4_0 + 12 y_4_1 + 2 y_4_2 + 27 y_4_3 + 25 y_4_4 + 10 y_4_5 + 30 y_4_6 + 34 y_4_7 + 31 y_4_8 + 28 y_5_0 + 22 y_5_1 + 21 y_5_2 + 6 y_5_3 + 28 y_5_4 + 3 y_5_5 + 49 y_5_6 + 41 y_5_7 + 49 y_5_8;

x_0_0 + x_0_1 + x_0_2 + x_0_3 + x_0_4 + x_0_5 <= 206;
x_1_0 + x_1_1 + x_1_2 + x_1_3 + x_1_4 + x_1_5 <= 162;
x_2_0 + x_2_1 + x_2_2 + x_2_3 + x_2_4 + x_2_5 <= 184;
x_3_0 + x_3_1 + x_3_2 + x_3_3 + x_3_4 + x_3_5 <= 84;
x_4_0 + x_4_1 + x_4_2 + x_4_3 + x_4_4 + x_4_5 <= 216;
x_5_0 + x_5_1 + x_5_2 + x_5_3 + x_5_4 + x_5_5 <= 122;
x_6_0 + x_6_1 + x_6_2 + x_6_3 + x_6_4 + x_6_5 <= 219;
x_7_0 + x_7_1 + x_7_2 + x_7_3 + x_7_4 + x_7_5 <= 186;
x_8_0 + x_8_1 + x_8_2 + x_8_3 + x_8_4 + x_8_5 <= 121;
x_9_0 + x_9_1 + x_9_2 + x_9_3 + x_9_4 + x_9_5 <= 125;

x_0_0 + x_1_0 + x_2_0 + x_3_0 + x_4_0 + x_5_0 + x_6_0 + x_7_0 + x_8_0 + x_9_0 - y_0_0 - y_0_1 - y_0_2 - y_0_3 - y_0_4 - y_0_5 - y_0_6 - y_0_7 - y_0_8 = 0;
x_0_1 + x_1_1 + x_2_1 + x_3_1 + x_4_1 + x_5_1 + x_6_1 + x_7_1 + x_8_1 + x_9_1 - y_1_0 - y_1_1 - y_1_2 - y_1_3 - y_1_4 - y_1_5 - y_1_6 - y_1_7 - y_1_8 = 0;
x_0_2 + x_1_2 + x_2_2 + x_3_2 + x_4_2 + x_5_2 + x_6_2 + x_7_2 + x_8_2 + x_9_2 - y_2_0 - y_2_1 - y_2_2 - y_2_3 - y_2_4 - y_2_5 - y_2_6 - y_2_7 - y_2_8 = 0;
x_0_3 + x_1_3 + x_2_3 + x_3_3 + x_4_3 + x_5_3 + x_6_3 + x_7_3 + x_8_3 + x_9_3 - y_3_0 - y_3_1 - y_3_2 - y_3_3 - y_3_4 - y_3_5 - y_3_6 - y_3_7 - y_3_8 = 0;
x_0_4 + x_1_4 + x_2_4 + x_3_4 + x_4_4 + x_5_4 + x_6_4 + x_7_4 + x_8_4 + x_9_4 - y_4_0 - y_4_1 - y_4_2 - y_4_3 - y_4_4 - y_4_5 - y_4_6 - y_4_7 - y_4_8 = 0;
x_0_5 + x_1_5 + x_2_5 + x_3_5 + x_4_5 + x_5_5 + x_6_5 + x_7_5 + x_8_5 + x_9_5 - y_5_0 - y_5_1 - y_5_2 - y_5_3 - y_5_4 - y_5_5 - y_5_6 - y_5_7 - y_5_8 = 0;

y_0_0 + y_0_1 + y_0_2 + y_0_3 + y_0_4 + y_0_5 + y_0_6 + y_0_7 + y_0_8 - 610 z_0 <= 0;
y_1_0 + y_1_1 + y_1_2 + y_1_3 + y_1_4 + y_1_5 + y_1_6 + y_1_7 + y_1_8 - 662 z_1 <= 0;
y_2_0 + y_2_1 + y_2_2 + y_2_3 + y_2_4 + y_2_5 + y_2_6 + y_2_7 + y_2_8 - 817 z_2 <= 0;
y_3_0 + y_3_1 + y_3_2 + y_3_3 + y_3_4 + y_3_5 + y_3_6 + y_3_7 + y_3_8 - 387 z_3 <= 0;
y_4_0 + y_4_1 + y_4_2 + y_4_3 + y_4_4 + y_4_5 + y_4_6 + y_4_7 + y_4_8 - 805 z_4 <= 0;
y_5_0 + y_5_1 + y_5_2 + y_5_3 + y_5_4 + y_5_5 + y_5_6 + y_5_7 + y_5_8 - 1048 z_5 <= 0;

y_0_0 + y_1_0 + y_2_0 + y_3_0 + y_4_0 + y_5_0 = 187;
y_0_1 + y_1_1 + y_2_1 + y_3_1 + y_4_1 + y_5_1 = 106;
y_0_2 + y_1_2 + y_2_2 + y_3_2 + y_4_2 + y_5_2 = 144;
y_0_3 + y_1_3 + y_2_3 + y_3_3 + y_4_3 + y_5_3 = 115;
y_0_4 + y_1_4 + y_2_4 + y_3_4 + y_4_4 + y_5_4 = 181;
y_0_5 + y_1_5 + y_2_5 + y_3_5 + y_4_5 + y_5_5 = 195;
y_0_6 + y_1_6 + y_2_6 + y_3_6 + y_4_6 + y_5_6 = 130;
y_0_7 + y_1_7 + y_2_7 + y_3_7 + y_4_7 + y_5_7 = 71;
y_0_8 + y_1_8 + y_2_8 + y_3_8 + y_4_8 + y_5_8 = 137;

z_0 + z_1 + z_2 + z_3 + z_4 + z_5 <= 3;

bin z_0, z_1, z_2, z_3, z_4, z_5;
